(set-info :source |printed by MathSAT|)
(declare-fun |!{$(in_main#0)<a1.1>}| () (Array Int Int))
(declare-fun |!{$(in_main#0)<a1.1>}.next| () (Array Int Int))
(declare-fun |!{$(in_main#0)<a2.2>}| () (Array Int Int))
(declare-fun |!{$(in_main#0)<a2.2>}.next| () (Array Int Int))
(declare-fun |!{$(in_main#0)<a3.3>}| () (Array Int Int))
(declare-fun |!{$(in_main#0)<a3.3>}.next| () (Array Int Int))
(declare-fun |!{$(in_main#0)<N>}| () Int)
(declare-fun |!{$(in_main#0)<N>}.next| () Int)
(declare-fun |!{$(in_main#0)<a>}| () Int)
(declare-fun |!{$(in_main#0)<a>}.next| () Int)
(declare-fun |!{$(in_main#0)<i>}| () Int)
(declare-fun |!{$(in_main#0)<i>}.next| () Int)
(declare-fun |!{$(in_main#0)<x>}| () Int)
(declare-fun |!{$(in_main#0)<x>}.next| () Int)
(declare-fun |!{$(in_main#0)<$(in___VERIFIER_nondet_int#0)<h#<__VERIFIER_nondet_int.return>>>}| () Int)
(declare-fun |!{$(in_main#0)<$(in___VERIFIER_nondet_int#1)<h#<__VERIFIER_nondet_int.return>>>}| () Int)
(declare-fun |!{$(in_main#0)<$(in___VERIFIER_nondet_int#2)<h#<__VERIFIER_nondet_int.return>>>}| () Int)
(declare-fun !pc () Int)
(declare-fun !pc.next () Int)
(declare-fun |%{$(in_main#0)<i>}#1| () Int)
(declare-fun |%{$(in_main#0)<x>}#1| () Int)
(declare-fun |%{$(in_main#0)<a1.1>}#1| () (Array Int Int))
(declare-fun |%{$(in_main#0)<a2.2>}#1| () (Array Int Int))
(declare-fun |%{$(in_main#0)<a3.3>}#1| () (Array Int Int))
(define-fun .def_40 () Int (! !pc :next !pc.next))
(define-fun .def_43 () Bool (! (= .def_40 2) :init true))
(define-fun .def_203 () Bool (= .def_40 31))
(define-fun .def_178 () Bool (= !pc.next 60))
(define-fun .def_206 () Bool (and .def_178 .def_203))
(define-fun .def_16 () Int (! |!{$(in_main#0)<a>}| :next |!{$(in_main#0)<a>}.next|))
(define-fun .def_14 () Int (! |!{$(in_main#0)<N>}| :next |!{$(in_main#0)<N>}.next|))
(define-fun .def_185 () Bool (<= .def_14 .def_16))
(define-fun .def_172 () Bool (= |!{$(in_main#0)<i>}.next| 0))
(define-fun .def_10 () (Array Int Int) (! |!{$(in_main#0)<a2.2>}| :next |!{$(in_main#0)<a2.2>}.next|))
(define-fun .def_87 () Bool (= .def_10 |!{$(in_main#0)<a2.2>}.next|))
(define-fun .def_8 () (Array Int Int) (! |!{$(in_main#0)<a1.1>}| :next |!{$(in_main#0)<a1.1>}.next|))
(define-fun .def_85 () Bool (= .def_8 |!{$(in_main#0)<a1.1>}.next|))
(define-fun .def_100 () Bool (and .def_85 .def_87))
(define-fun .def_12 () (Array Int Int) (! |!{$(in_main#0)<a3.3>}| :next |!{$(in_main#0)<a3.3>}.next|))
(define-fun .def_89 () Bool (= .def_12 |!{$(in_main#0)<a3.3>}.next|))
(define-fun .def_101 () Bool (and .def_89 .def_100))
(define-fun .def_91 () Bool (= .def_14 |!{$(in_main#0)<N>}.next|))
(define-fun .def_102 () Bool (and .def_91 .def_101))
(define-fun .def_93 () Bool (= .def_16 |!{$(in_main#0)<a>}.next|))
(define-fun .def_103 () Bool (and .def_93 .def_102))
(define-fun .def_173 () Bool (and .def_103 .def_172))
(define-fun .def_20 () Int (! |!{$(in_main#0)<x>}| :next |!{$(in_main#0)<x>}.next|))
(define-fun .def_97 () Bool (= .def_20 |!{$(in_main#0)<x>}.next|))
(define-fun .def_174 () Bool (and .def_97 .def_173))
(define-fun .def_202 () Bool (and .def_174 .def_185))
(define-fun .def_207 () Bool (and .def_202 .def_206))
(define-fun .def_71 () Bool (= !pc.next 31))
(define-fun .def_204 () Bool (and .def_71 .def_203))
(define-fun .def_195 () Int (* (- 1) |!{$(in_main#0)<a>}.next|))
(define-fun .def_196 () Int (+ .def_16 .def_195))
(define-fun .def_197 () Bool (= .def_196 (- 1)))
(define-fun .def_188 () (Array Int Int) (store .def_10 .def_16 |!{$(in_main#0)<$(in___VERIFIER_nondet_int#2)<h#<__VERIFIER_nondet_int.return>>>}|))
(define-fun .def_191 () Bool (= |!{$(in_main#0)<a2.2>}.next| .def_188))
(define-fun .def_187 () (Array Int Int) (store .def_8 .def_16 |!{$(in_main#0)<$(in___VERIFIER_nondet_int#1)<h#<__VERIFIER_nondet_int.return>>>}|))
(define-fun .def_190 () Bool (= |!{$(in_main#0)<a1.1>}.next| .def_187))
(define-fun .def_192 () Bool (and .def_190 .def_191))
(define-fun .def_193 () Bool (and .def_89 .def_192))
(define-fun .def_194 () Bool (and .def_91 .def_193))
(define-fun .def_198 () Bool (and .def_194 .def_197))
(define-fun .def_18 () Int (! |!{$(in_main#0)<i>}| :next |!{$(in_main#0)<i>}.next|))
(define-fun .def_95 () Bool (= .def_18 |!{$(in_main#0)<i>}.next|))
(define-fun .def_199 () Bool (and .def_95 .def_198))
(define-fun .def_200 () Bool (and .def_97 .def_199))
(define-fun .def_186 () Bool (not .def_185))
(define-fun .def_201 () Bool (and .def_186 .def_200))
(define-fun .def_205 () Bool (and .def_201 .def_204))
(define-fun .def_208 () Bool (or .def_205 .def_207))
(define-fun .def_177 () Bool (= .def_40 60))
(define-fun .def_156 () Bool (= !pc.next 74))
(define-fun .def_181 () Bool (and .def_156 .def_177))
(define-fun .def_136 () Bool (<= .def_14 .def_18))
(define-fun .def_175 () Bool (and .def_136 .def_174))
(define-fun .def_182 () Bool (and .def_175 .def_181))
(define-fun .def_179 () Bool (and .def_177 .def_178))
(define-fun .def_163 () Int (select .def_8 .def_18))
(define-fun .def_164 () (Array Int Int) (store .def_12 .def_18 .def_163))
(define-fun .def_165 () Bool (= |!{$(in_main#0)<a3.3>}.next| .def_164))
(define-fun .def_166 () Bool (and .def_100 .def_165))
(define-fun .def_167 () Bool (and .def_91 .def_166))
(define-fun .def_168 () Bool (and .def_93 .def_167))
(define-fun .def_145 () Int (* (- 1) |!{$(in_main#0)<i>}.next|))
(define-fun .def_146 () Int (+ .def_18 .def_145))
(define-fun .def_147 () Bool (= .def_146 (- 1)))
(define-fun .def_169 () Bool (and .def_147 .def_168))
(define-fun .def_170 () Bool (and .def_97 .def_169))
(define-fun .def_137 () Bool (not .def_136))
(define-fun .def_171 () Bool (and .def_137 .def_170))
(define-fun .def_180 () Bool (and .def_171 .def_179))
(define-fun .def_183 () Bool (or .def_180 .def_182))
(define-fun .def_155 () Bool (= .def_40 74))
(define-fun .def_125 () Bool (= !pc.next 88))
(define-fun .def_159 () Bool (and .def_125 .def_155))
(define-fun .def_151 () Bool (= |!{$(in_main#0)<x>}.next| 0))
(define-fun .def_104 () Bool (and .def_95 .def_103))
(define-fun .def_152 () Bool (and .def_104 .def_151))
(define-fun .def_153 () Bool (and .def_136 .def_152))
(define-fun .def_160 () Bool (and .def_153 .def_159))
(define-fun .def_157 () Bool (and .def_155 .def_156))
(define-fun .def_138 () Int (select .def_10 .def_18))
(define-fun .def_139 () (Array Int Int) (store .def_12 .def_18 .def_138))
(define-fun .def_141 () Bool (= |!{$(in_main#0)<a3.3>}.next| .def_139))
(define-fun .def_142 () Bool (and .def_100 .def_141))
(define-fun .def_143 () Bool (and .def_91 .def_142))
(define-fun .def_144 () Bool (and .def_93 .def_143))
(define-fun .def_148 () Bool (and .def_144 .def_147))
(define-fun .def_149 () Bool (and .def_97 .def_148))
(define-fun .def_150 () Bool (and .def_137 .def_149))
(define-fun .def_158 () Bool (and .def_150 .def_157))
(define-fun .def_161 () Bool (or .def_158 .def_160))
(define-fun .def_129 () Bool (= !pc.next 0))
(define-fun .def_120 () Bool (= .def_40 88))
(define-fun .def_130 () Bool (and .def_120 .def_129))
(define-fun .def_74 () Bool (<= .def_14 .def_20))
(define-fun .def_112 () Bool (and .def_74 .def_85))
(define-fun .def_113 () Bool (and .def_87 .def_112))
(define-fun .def_114 () Bool (and .def_89 .def_113))
(define-fun .def_115 () Bool (and .def_91 .def_114))
(define-fun .def_116 () Bool (and .def_93 .def_115))
(define-fun .def_117 () Bool (and .def_95 .def_116))
(define-fun .def_118 () Bool (and .def_97 .def_117))
(define-fun .def_131 () Bool (and .def_118 .def_130))
(define-fun .def_126 () Bool (and .def_120 .def_125))
(define-fun .def_106 () Int (* (- 1) |!{$(in_main#0)<x>}.next|))
(define-fun .def_107 () Int (+ .def_20 .def_106))
(define-fun .def_108 () Bool (= .def_107 (- 1)))
(define-fun .def_109 () Bool (and .def_104 .def_108))
(define-fun .def_77 () Int (select .def_12 .def_20))
(define-fun .def_76 () Int (select .def_8 .def_20))
(define-fun .def_78 () Bool (= .def_76 .def_77))
(define-fun .def_79 () Int (ite .def_78 1 0))
(define-fun .def_80 () Bool (= .def_79 0))
(define-fun .def_81 () Bool (not .def_80))
(define-fun .def_110 () Bool (and .def_81 .def_109))
(define-fun .def_75 () Bool (not .def_74))
(define-fun .def_111 () Bool (and .def_75 .def_110))
(define-fun .def_127 () Bool (and .def_111 .def_126))
(define-fun .def_122 () Bool (= !pc.next 108))
(define-fun .def_123 () Bool (and .def_120 .def_122))
(define-fun .def_86 () Bool (and .def_80 .def_85))
(define-fun .def_88 () Bool (and .def_86 .def_87))
(define-fun .def_90 () Bool (and .def_88 .def_89))
(define-fun .def_92 () Bool (and .def_90 .def_91))
(define-fun .def_94 () Bool (and .def_92 .def_93))
(define-fun .def_96 () Bool (and .def_94 .def_95))
(define-fun .def_98 () Bool (and .def_96 .def_97))
(define-fun .def_99 () Bool (and .def_75 .def_98))
(define-fun .def_124 () Bool (and .def_99 .def_123))
(define-fun .def_128 () Bool (or .def_124 .def_127))
(define-fun .def_132 () Bool (or .def_128 .def_131))
(define-fun .def_72 () Bool (and .def_43 .def_71))
(define-fun .def_68 () Bool (= |!{$(in_main#0)<x>}.next| |%{$(in_main#0)<x>}#1|))
(define-fun .def_66 () Bool (= |!{$(in_main#0)<i>}.next| |%{$(in_main#0)<i>}#1|))
(define-fun .def_64 () Bool (= |!{$(in_main#0)<a>}.next| 0))
(define-fun .def_62 () Bool (= |!{$(in_main#0)<N>}.next| |!{$(in_main#0)<$(in___VERIFIER_nondet_int#0)<h#<__VERIFIER_nondet_int.return>>>}|))
(define-fun .def_60 () Bool (= |!{$(in_main#0)<a3.3>}.next| |%{$(in_main#0)<a3.3>}#1|))
(define-fun .def_58 () Bool (= |!{$(in_main#0)<a2.2>}.next| |%{$(in_main#0)<a2.2>}#1|))
(define-fun .def_57 () Bool (= |!{$(in_main#0)<a1.1>}.next| |%{$(in_main#0)<a1.1>}#1|))
(define-fun .def_59 () Bool (and .def_57 .def_58))
(define-fun .def_61 () Bool (and .def_59 .def_60))
(define-fun .def_63 () Bool (and .def_61 .def_62))
(define-fun .def_65 () Bool (and .def_63 .def_64))
(define-fun .def_67 () Bool (and .def_65 .def_66))
(define-fun .def_69 () Bool (and .def_67 .def_68))
(define-fun .def_73 () Bool (and .def_69 .def_72))
(define-fun .def_133 () Bool (or .def_73 .def_132))
(define-fun .def_162 () Bool (or .def_133 .def_161))
(define-fun .def_184 () Bool (or .def_162 .def_183))
(define-fun .def_209 () Bool (! (or .def_184 .def_208) :trans true))
(define-fun .def_134 () Bool (= .def_40 108))
(define-fun .def_210 () Bool (! (not .def_134) :invar-property 0 :invar-property-name ||))
(assert true)
